//Dat File

outFile="MPVSBPP_SET1_IT200_ITV1_NT2_TS3_WT1_VT1_REP4";
m=200;
o=96;
p=3;
numVTypes=3;

demand = [1, 5, 5, 10, 6, 1, 5, 10, 7, 2, 11, 11, 8, 8, 1, 4, 6, 9, 5, 9, 9, 10, 6, 4, 4, 10, 5, 6, 9, 6, 5, 1, 11, 2, 7, 2, 4, 2, 2, 9, 8, 4, 10, 7, 8, 1, 10, 10, 3, 5, 11, 2, 5, 10, 10, 5, 8, 11, 11, 10, 3, 4, 5, 10, 6, 6, 5, 7, 1, 5, 10, 3, 2, 11, 11, 1, 3, 4, 10, 1, 5, 8, 6, 2, 4, 2, 1, 5, 3, 7, 4, 7, 7, 11, 5, 6, 9, 3, 4, 8, 1, 11, 5, 11, 6, 5, 9, 1, 4, 5, 4, 2, 5, 2, 7, 6, 4, 4, 1, 7, 7, 8, 6, 4, 7, 11, 4, 3, 5, 6, 4, 3, 4, 1, 11, 7, 3, 8, 5, 4, 2, 6, 9, 1, 4, 9, 3, 11, 6, 2, 17, 19, 19, 18, 18, 12, 13, 16, 15, 15, 17, 16, 16, 16, 14, 14, 17, 19, 16, 14, 13, 12, 13, 17, 15, 19, 16, 15, 19, 18, 16, 13, 18, 18, 16, 18, 12, 18, 16, 13, 17, 14, 13, 18, 18, 12, 15, 17, 18, 16];
Depot_Cap = [30000, 30000, 30000];
Tarif = [10, 3, 7];
VeicVolume = [100, 150, 200];
VeicCost = [100, 120, 140];
VeicType = [1, 1, 1, 1, 1, 1, 1, 1, 1, 1, 1, 1, 1, 1, 1, 1, 1, 1, 1, 1, 1, 1, 1, 1, 1, 1, 1, 1, 1, 1, 1, 1, 2, 2, 2, 2, 2, 2, 2, 2, 2, 2, 2, 2, 2, 2, 2, 2, 2, 2, 2, 2, 2, 2, 2, 2, 2, 2, 2, 2, 2, 2, 2, 2, 3, 3, 3, 3, 3, 3, 3, 3, 3, 3, 3, 3, 3, 3, 3, 3, 3, 3, 3, 3, 3, 3, 3, 3, 3, 3, 3, 3, 3, 3, 3, 3];
Elect_vehicle = [[70, 100, 30], [70, 100, 30], [70, 100, 30], [70, 100, 30], [70, 100, 30], [70, 100, 30], [70, 100, 30], [70, 100, 30], [70, 100, 30], [70, 100, 30], [70, 100, 30], [70, 100, 30], [70, 100, 30], [70, 100, 30], [70, 100, 30], [70, 100, 30], [70, 100, 30], [70, 100, 30], [70, 100, 30], [70, 100, 30], [70, 100, 30], [70, 100, 30], [70, 100, 30], [70, 100, 30], [70, 100, 30], [70, 100, 30], [70, 100, 30], [70, 100, 30], [70, 100, 30], [70, 100, 30], [70, 100, 30], [70, 100, 30], [80, 120, 30], [80, 120, 30], [80, 120, 30], [80, 120, 30], [80, 120, 30], [80, 120, 30], [80, 120, 30], [80, 120, 30], [80, 120, 30], [80, 120, 30], [80, 120, 30], [80, 120, 30], [80, 120, 30], [80, 120, 30], [80, 120, 30], [80, 120, 30], [80, 120, 30], [80, 120, 30], [80, 120, 30], [80, 120, 30], [80, 120, 30], [80, 120, 30], [80, 120, 30], [80, 120, 30], [80, 120, 30], [80, 120, 30], [80, 120, 30], [80, 120, 30], [80, 120, 30], [80, 120, 30], [80, 120, 30], [80, 120, 30], [90, 140, 40], [90, 140, 40], [90, 140, 40], [90, 140, 40], [90, 140, 40], [90, 140, 40], [90, 140, 40], [90, 140, 40], [90, 140, 40], [90, 140, 40], [90, 140, 40], [90, 140, 40], [90, 140, 40], [90, 140, 40], [90, 140, 40], [90, 140, 40], [90, 140, 40], [90, 140, 40], [90, 140, 40], [90, 140, 40], [90, 140, 40], [90, 140, 40], [90, 140, 40], [90, 140, 40], [90, 140, 40], [90, 140, 40], [90, 140, 40], [90, 140, 40], [90, 140, 40], [90, 140, 40], [90, 140, 40], [90, 140, 40]];